(set-logic QF_S)
(set-option :parse-transducers true)
(set-option :produce-models true)
(define-fun-rec toLower ((x String) (y String)) Bool
   (or (and (= x "") (= y ""))
       (and (not (= x "")) (not (= y ""))
           (= (char.code (str.head y))
               (ite (and (<= 65 (char.code (str.head x)))
                       (<= (char.code (str.head x)) 90))
                   (+ (char.code (str.head x)) 32)
                   (char.code (str.head x))))
           (toLower (str.tail x) (str.tail y))))
)
(declare-fun sym252 () String)
(declare-fun sym122 () String)
(declare-fun L1  () String)
(declare-fun L0  () String)
(assert (toLower sym252  L0 ))
(assert (toLower sym122  L1 ))

(assert (= L0 "/quit" ))
(assert (not (= L1 "middle school" )))
(assert (= L1 "high school" ))
(assert (not (= L0 "y" )))
(assert (not (= L0 "n" )))
(assert (not (= L0 "/restart" )))
(assert (not (= L1 "elementary" )))
(check-sat)
(get-model)
(exit)
